InboundTrucks  = 12;
OutboundTrucks = 8;
InboundDoors   = 4;
OutboundDoors  = 4;
ReleaseTime    = [81,14,3,94,35,31,28,17,94,13,86,94];
UnloadTime     = [32,43,10,11,14,30,36,43,13,38,11,43];
LoadTime       = [14,6,11,8,7,19,10,27];
TransferTime   = [| 0,33,0,0,0,29,0,44 | 30,0,50,26,0,0,39,30 | 0,46,0,14,0,39,45,37 | 0,18,42,17,0,0,0,39 | 0,26,30,0,44,0,0,20 | 0,46,0,0,16,0,0,0 | 0,44,0,0,0,17,16,0 | 49,0,15,14,0,35,45,0 | 23,14,10,0,0,0,0,0 | 0,0,11,24,13,0,0,0 | 41,46,0,25,16,37,0,0 | 16,16,38,39,0,0,45,44 |];
